Optimal - objective value 5.85321938
      0 C0000000           49800                      -0
      1 C0000001           49800                      -0
      2 C0000002               1                      -0
      3 C0000003               2                      -0
      4 C0000004               3                      -0
      5 C0000005               1                      -0
      6 C0000006               1                      -0
      7 C0000007               1                      -0
      8 C0000008               0                      -0
      9 C0000009               0                      -0
     10 C0000010               1                      -0
     11 C0000011               0                      -0
     12 C0000012               0                      -0
     13 C0000013               1                      -0
     14 C0000014               0                      -0
     15 C0000015               0                      -0
     16 C0000016               0                      -0
     17 C0000017               2                      -0
     18 C0000018               1                      -0
     19 C0000019               0                      -0
     20 C0000020               0                      -0
     21 C0000021               0                      -0
     22 C0000022               0                      -0
     23 C0000023               1                      -0
     24 C0000024               1                      -0
     25 C0000025               0                      -0
     26 C0000026               2                      -0
     27 C0000027               0                      -0
     28 C0000028               0                      -0
     29 C0000029               0                      -0
     30 C0000030               0                      -0
     31 C0000031               0                      -0
     32 C0000032               0                      -0
     33 C0000033               0                      -0
     34 C0000034               0                      -0
     35 C0000035               0                      -0
     36 C0000036               0                      -0
     37 C0000037               0                      -0
     38 C0000038               0                      -0
     39 C0000039               1                      -0
     40 C0000040               0                      -0
     41 C0000041               1                      -0
     42 C0000042               0                      -0
     43 C0000043               0                      -0
     44 C0000044               0                      -0
     45 C0000045               0                      -0
     46 C0000046               0                      -0
     47 C0000047               0                      -0
     48 C0000048               0                      -0
     49 C0000049               0                      -0
     50 C0000050               0                      -0
     51 C0000051               0                      -0
     52 C0000052               0                      -0
     53 C0000053               0                      -0
     54 C0000054               0                      -0
     55 C0000055               0                      -0
     56 C0000056               0                      -0
     57 C0000057               0                      -0
     58 C0000058               0                      -0
     59 C0000059               0                      -0
     60 C0000060               0                      -0
     61 C0000061               0                      -0
     62 C0000062               0                      -0
     63 C0000063               0                      -0
     64 C0000064               0                      -0
     65 C0000065               0                      -0
     66 C0000066               0                      -0
     67 C0000067               0                      -0
     68 C0000068               0                      -0
     69 C0000069               0                      -0
     70 C0000070               1                      -0
     71 C0000071               0                      -0
     72 C0000072               0                      -0
     73 C0000073               0                      -0
     74 C0000074               1                      -0
     75 C0000075               0                      -0
     76 C0000076               0                      -0
     77 C0000077               0                      -0
     78 C0000078               0                      -0
     79 C0000079               0                      -0
     80 C0000080               0                      -0
     81 C0000081               0                      -0
     82 C0000082               0                      -0
     83 C0000083               0                      -0
     84 C0000084               0                      -0
     85 C0000085               0                      -0
     86 C0000086               0                      -0
     87 C0000087               0                      -0
     88 C0000088               0                      -0
     89 C0000089               0                      -0
     90 C0000090               0                      -0
     91 C0000091               0                      -0
     92 C0000092               0                      -0
     93 C0000093               0                      -0
     94 C0000094               0                      -0
     95 C0000095               1                      -0
     96 C0000096               0                      -0
     97 C0000097               0                      -0
     98 C0000098               0                      -0
     99 C0000099               0                      -0
    100 C0000100               0                      -0
    101 C0000101               0                      -0
    102 C0000102               0                      -0
    103 C0000103               0                      -0
    104 C0000104               0                      -0
    105 C0000105               0                      -0
    106 C0000106               0                      -0
    107 C0000107               0                      -0
    108 C0000108               0                      -0
    109 C0000109               0                      -0
    110 C0000110               1                      -0
    111 C0000111               0                      -0
    112 C0000112               0                      -0
    113 C0000113               0                      -0
    114 C0000114               0                      -0
    115 C0000115               0                      -0
    116 C0000116               0                      -0
    117 C0000117               0                      -0
    118 C0000118               0                      -0
    119 C0000119               0                      -0
    120 C0000120               0                      -0
    121 C0000121               0                      -0
    122 C0000122               0                      -0
    123 C0000123               0                      -0
    124 C0000124               0                      -0
    125 C0000125               0                      -0
    126 C0000126               0                      -0
    127 C0000127               0                      -0
    128 C0000128               0                      -0
    129 C0000129               0                      -0
    130 C0000130               0                      -0
    131 C0000131               0                      -0
    132 C0000132               0                      -0
    133 C0000133               0                      -0
    134 C0000134               0                      -0
    135 C0000135               0                      -0
    136 C0000136               0                      -0
    137 C0000137               0                      -0
    138 C0000138               0                      -0
    139 C0000139               0                      -0
    140 C0000140               0                      -0
    141 C0000141               1                      -0
    142 C0000142               1                      -0
    143 C0000143               0                      -0
    144 C0000144               0                      -0
    145 C0000145               0                      -0
    146 C0000146               0                      -0
    147 C0000147               0                      -0
    148 C0000148               0                      -0
    149 C0000149               0                      -0
    150 C0000150               0                      -0
    151 C0000151               0                      -0
    152 C0000152               0                      -0
    153 C0000153               0                      -0
    154 C0000154               0                      -0
    155 C0000155               0                      -0
    156 C0000156               0                      -0
    157 C0000157               0                      -0
    158 C0000158               0                      -0
    159 C0000159               1                      -0
    160 C0000160               0                      -0
    161 C0000161               0                      -0
    162 C0000162               0                      -0
    163 C0000163               0                      -0
    164 C0000164               0                      -0
    165 C0000165               0                      -0
    166 C0000166               0                      -0
    167 C0000167               0                      -0
    168 C0000168               0                      -0
    169 C0000169               0                      -0
    170 C0000170               0                      -0
    171 C0000171               0                      -0
    172 C0000172               0                      -0
    173 C0000173               0                      -0
    174 C0000174               0                      -0
    175 C0000175               0                      -0
    176 C0000176               0                      -0
    177 C0000177               0                      -0
    178 C0000178               0                      -0
    179 C0000179               0                      -0
    180 C0000180               0                      -0
    181 C0000181               0                      -0
    182 C0000182               0                      -0
    183 C0000183               0                      -0
    184 C0000184               0                      -0
    185 C0000185               0                      -0
    186 C0000186               0                      -0
    187 C0000187               0                      -0
    188 C0000188               0                      -0
    189 C0000189               0                      -0
    190 C0000190               0                      -0
    191 C0000191               0                      -0
    192 C0000192               0                      -0
    193 C0000193               0                      -0
    194 C0000194               0                      -0
    195 C0000195          100.01                      -0
    196 C0000196          138.23                      -0
    197 C0000197               8                      -0
    198 C0000198               7                      -0
    199 C0000199               6                      -0
    200 C0000200               5                      -0
    201 C0000201               6                      -0
    202 C0000202               7                      -0
    203 C0000203               6                      -0
    204 C0000204               6                      -0
    205 C0000205               6                      -0
    206 C0000206               7                      -0
    207 C0000207               5                      -0
    208 C0000208               6                      -0
    209 C0000209               6                      -0
    210 C0000210               7                      -0
    211 C0000211               7                      -0
    212 C0000212               6                      -0
      0 X0000000               0             -0.20960879
      1 X0000001               0              0.65691153
      2 X0000002               0              0.65691153
      3 X0000003               0              0.53285249
      4 X0000004               0              0.53285249
      5 X0000005               0              0.97222659
      6 X0000006               0              0.55650736
      7 X0000007               0              0.55650736
      8 X0000008               0              0.25709367
      9 X0000009               0              0.25709367
     10 X0000010               1                       1
     11 X0000011               0              0.40712058
     12 X0000012               0              0.40712058
     13 X0000013               0              0.47000105
     14 X0000014               0              0.47000105
     15 X0000015               0              0.42315025
     16 X0000016               0              0.42315025
     17 X0000017               0              0.33597056
     18 X0000018               0              0.33597056
     19 X0000019               0              0.64494013
     20 X0000020               0              0.64494013
     21 X0000021               0              0.29984307
     22 X0000022               0              0.29984307
     23 X0000023               0               0.6145336
     24 X0000024               0              0.17860964
     25 X0000025               0              0.17860964
     26 X0000026               0            -0.054327921
     27 X0000027               0            -0.054327921
     28 X0000028               0              0.11495534
     29 X0000029               0            0.0083949915
     30 X0000030               0            0.0083949915
     31 X0000031               0              0.24359474
     32 X0000032               0              0.65891743
     33 X0000033               0              0.65891743
     34 X0000034               1               0.2812545
     35 X0000035               0              0.17209235
     36 X0000036               0              0.17209235
     37 X0000037               0              0.47456557
     38 X0000038               0              0.47456557
     39 X0000039               0              0.43685014
     40 X0000040               0              0.43685014
     41 X0000041               0              0.52309361
     42 X0000042               0              0.52309361
     43 X0000043               0                0.599753
     44 X0000044               0                0.599753
     45 X0000045               0              0.65443604
     46 X0000046               0              0.65443604
     47 X0000047               0              0.82248846
     48 X0000048               0             -0.16176306
     49 X0000049               0              0.84257987
     50 X0000050               0              0.67004337
     51 X0000051               0              0.48467444
     52 X0000052               0              0.48467444
     53 X0000053               0              0.16939712
     54 X0000054               0              0.16939712
     55 X0000055               0              0.17932005
     56 X0000056               0              0.73241106
     57 X0000057               1              0.73241106
     58 X0000058               0             0.090290822
     59 X0000059               0             0.090290822
     60 X0000060               0              0.63410879
     61 X0000061               0              0.63410879
     62 X0000062               0              0.27515142
     63 X0000063               0              0.27515142
     64 X0000064               0              0.22871917
     65 X0000065               0             -0.11653839
     66 X0000066               0              0.46180853
     67 X0000067               0              0.46180853
     68 X0000068               0             0.087357762
     69 X0000069               0             0.087357762
     70 X0000070               0              0.43386848
     71 X0000071               0              0.43386848
     72 X0000072               0              0.48063981
     73 X0000073               0              0.48063981
     74 X0000074               0              0.62600248
     75 X0000075               0              0.62600248
     76 X0000076               0               0.4595038
     77 X0000077               0               0.4595038
     78 X0000078               0             0.087360312
     79 X0000079               0             0.087360312
     80 X0000080               0              0.23457399
     81 X0000081               0              0.23457399
     82 X0000082               0              0.35560718
     83 X0000083               0              0.35560718
     84 X0000084               0              0.65809771
     85 X0000085               0              0.65809771
     86 X0000086               0              0.34237158
     87 X0000087               0              0.34237158
     88 X0000088               0              0.62484544
     89 X0000089               0              0.62484544
     90 X0000090               0              0.52308958
     91 X0000091               0              0.52308958
     92 X0000092               0              0.51327377
     93 X0000093               0              0.51327377
     94 X0000094               0              0.33213303
     95 X0000095               0              0.33213303
     96 X0000096               0               0.2909016
     97 X0000097               0               0.2909016
     98 X0000098               0               0.2181674
     99 X0000099               0               0.2181674
    100 X0000100               0              0.21225635
    101 X0000101               0              0.21225635
    102 X0000102               0              0.16464491
    103 X0000103               0              0.88844313
    104 X0000104               0              0.54657934
    105 X0000105               0              0.54657934
    106 X0000106               0              0.74430015
    107 X0000107               0              0.82545901
    108 X0000108               0              0.24624079
    109 X0000109               0              0.24624079
    110 X0000110               0              0.23204124
    111 X0000111               0              0.54658091
    112 X0000112               0              0.54658091
    113 X0000113               0              0.25934001
    114 X0000114               0               0.5396019
    115 X0000115               0               0.5396019
    116 X0000116               0              0.90668033
    117 X0000117               0              0.69606154
    118 X0000118               1              0.69606154
    119 X0000119               0             -0.13075268
    120 X0000120               0               0.2840801
    121 X0000121               0               0.2840801
    122 X0000122               0              0.49428935
    123 X0000123               0              0.49428935
    124 X0000124               0              0.22135907
    125 X0000125               0              0.22135907
    126 X0000126               0              0.72246289
    127 X0000127               0              0.72246289
    128 X0000128               0             0.033659717
    129 X0000129               0             0.033659717
    130 X0000130               0              0.17292599
    131 X0000131               0              0.78459168
    132 X0000132               1              0.78459168
    133 X0000133               0              0.58852185
    134 X0000134               0              0.58852185
    135 X0000135               0              0.55957885
    136 X0000136               1              0.55957885
    137 X0000137               0              0.64049518
    138 X0000138               0               0.6621564
    139 X0000139               0               0.6621564
    140 X0000140               0              0.50540865
    141 X0000141               0              0.50540865
    142 X0000142               0              0.59450216
    143 X0000143               1              0.59450216
    144 X0000144               0              0.99042679
    145 X0000145               0              0.63274313
    146 X0000146               0              0.63274313
    147 X0000147               0               0.5434466
    148 X0000148               0               0.5434466
    149 X0000149               0              0.84655424
    150 X0000150               0              0.30440698
    151 X0000151               0              0.30440698
    152 X0000152               0              0.40842548
    153 X0000153               0              0.40842548
    154 X0000154               0              0.52180997
    155 X0000155               0              0.52180997
    156 X0000156               0             -0.11817398
    157 X0000157               0              0.85154714
    158 X0000158               0              0.57652753
    159 X0000159               0              0.57652753
    160 X0000160               0              0.56355561
    161 X0000161               0              0.56355561
    162 X0000162               0              0.56379841
    163 X0000163               0              0.56379841
    164 X0000164               0              0.19686335
    165 X0000165               0              0.19686335
    166 X0000166               0              0.84072777
    167 X0000167               0              0.48629154
    168 X0000168               0              0.48629154
    169 X0000169               0               0.6011004
    170 X0000170               0               0.6011004
    171 X0000171               0              0.31848815
    172 X0000172               0              0.31848815
    173 X0000173               0               0.5594209
    174 X0000174               0               0.5594209
    175 X0000175               0              0.16490186
    176 X0000176               0              0.16490186
    177 X0000177               0               0.1575212
    178 X0000178               0               0.1575212
    179 X0000179               0              0.51153474
    180 X0000180               0              0.51153474
    181 X0000181               0              0.35733575
    182 X0000182               0              0.35733575
    183 X0000183               0              0.58410308
    184 X0000184               0              0.58410308
    185 X0000185               0              0.36105449
    186 X0000186               0              0.36105449
    187 X0000187               0              0.73206767
    188 X0000188               0              0.58046665
    189 X0000189               0              0.58046665
    190 X0000190               0                -0.23688
    191 X0000191               0              0.64885611
    192 X0000192               1              0.66511934
    193 X0000193               0              0.66511934
    194 X0000194               0              0.33768115
    195 X0000195               0              0.33768115
    196 X0000196               0              0.53732283
    197 X0000197               0              0.53732283
    198 X0000198               0               0.7646933
    199 X0000199               0              0.77356181
    200 X0000200               0              0.18013099
    201 X0000201               0              0.18013099
    202 X0000202               0              0.74718346
    203 X0000203               0              0.49297528
    204 X0000204               0              0.49297528
    205 X0000205               0              0.34869591
    206 X0000206               0              0.34869591
    207 X0000207               0              0.31553024
    208 X0000208               0              0.31553024
    209 X0000209               0              0.42264222
    210 X0000210               0              0.42264222
    211 X0000211               0             0.065118398
    212 X0000212               0             0.065118398
    213 X0000213               0              0.27417608
    214 X0000214               0              0.27417608
    215 X0000215               0             -0.11196014
    216 X0000216               0              0.34678879
    217 X0000217               0              0.34678879
    218 X0000218               0               0.4062361
    219 X0000219               0               0.4062361
    220 X0000220               0              0.69210449
    221 X0000221               0              0.69210449
    222 X0000222               0              0.20141791
    223 X0000223               0              0.20141791
    224 X0000224               0             -0.14386293
    225 X0000225               0              0.20611724
    226 X0000226               0              0.21237047
    227 X0000227               0              0.21237047
    228 X0000228               0              0.40558476
    229 X0000229               0              0.40558476
    230 X0000230               0              0.45877726
    231 X0000231               0              0.45877726
    232 X0000232               0             -0.17951953
    233 X0000233               0             -0.17951953
    234 X0000234               0              0.41470845
    235 X0000235               0              0.41470845
    236 X0000236               0              0.14732409
    237 X0000237               0              0.14732409
    238 X0000238               0              0.72361886
    239 X0000239               0              0.44810616
    240 X0000240               0              0.44810616
    241 X0000241               0              0.60418398
    242 X0000242               0              0.60418398
    243 X0000243               0             -0.16829444
    244 X0000244               0              0.48302196
    245 X0000245               0              0.48302196
    246 X0000246               0              0.27220422
    247 X0000247               0              0.27220422
    248 X0000248               0              0.67424764
    249 X0000249               0              0.67424764
    250 X0000250               0              0.68873453
    251 X0000251               0              0.68873453
    252 X0000252               0             0.037364603
    253 X0000253               0             0.037364603
    254 X0000254               0             -0.14894986
    255 X0000255               0               0.4932065
    256 X0000256               0               0.4932065
    257 X0000257               0              0.40409281
    258 X0000258               0              0.40409281
    259 X0000259               0              0.45360861
    260 X0000260               0              0.45360861
    261 X0000261               0              0.21296461
    262 X0000262               0              0.21296461
    263 X0000263               0              0.57781884
    264 X0000264               0              0.57781884
    265 X0000265               0              0.65939671
    266 X0000266               0              0.20669565
    267 X0000267               0              0.20669565
    268 X0000268               0              0.31299701
    269 X0000269               0              0.31299701
    270 X0000270               0               0.2737712
    271 X0000271               0               0.2737712
    272 X0000272               0              0.25077765
    273 X0000273               0              0.25077765
    274 X0000274               0               0.2189842
    275 X0000275               0               0.2189842
    276 X0000276               0               0.2490236
    277 X0000277               0               0.2490236
    278 X0000278               0              0.50321493
    279 X0000279               0              0.50321493
    280 X0000280               0              0.43879894
    281 X0000281               0              0.43879894
    282 X0000282               0              0.17600746
    283 X0000283               0              0.53970024
    284 X0000284               1              0.53970024
    285 X0000285               0              0.29244033
    286 X0000286               0              0.29244033
